33D32945 STP File, STP Format Version 1.0

SECTION Comments
Name "shell_n12_d2_s43"
Problem "Euclidean Steiner Tree Problem"
Remark "Generated with STPGenerator. 2 dimensions."
END

SECTION Graph
Nodes 12
END

SECTION Coordinates
DD 0 -0.3851170301 -0.9228677441
DD 1 -0.0336595127 0.9994333581
DD 2 -0.0059924864 -0.9999820449
DD 3 0.6897142229 0.7240816879
DD 4 0.5725029753 -0.8199026426
DD 5 -0.8785173706 0.4777104035
DD 6 0.8099477589 -0.5865020271
DD 7 -0.5147205225 0.8573580254
DD 8 -0.9987429705 0.0501246334
DD 9 -0.2107466567 0.9775407136
DD 10 0.8696229419 -0.4937164560
DD 11 -0.9510902017 -0.3089133022
END
